c :: WCTIME=0.0311479
c :: command line :: ./optimal-finder cvc-add3-carry2-gadget.cnf -minimal
c :: version :: 160
c :: reference filename :: cvc-add3-carry2-gadget.cnf
c :: reference encoding :: 46
c i 2 3 5 7 13 9 18 21 0
c :: inputs :: 2 3 5 7 13 9 18 21 
c :: clause minimization :: 0
c :: assignments analyzed :: 3798
c :: reference encoding :: variables :: 20 :: clauses :: 46
c :: optimal encoding :: variables :: 8 :: clauses :: 77
c :: optimal minimal encoding :: 76
p cnf 21 76
-18 5 -21 0
-18 2 -21 0
-18 3 -21 0
7 -18 -21 0
13 -18 -21 0
-18 -9 -21 0
13 -9 -21 0
13 2 -21 0
13 3 -21 0
5 13 -21 0
7 13 -21 0
21 -13 18 0
21 -2 -3 18 0
21 -2 18 -5 0
21 -2 18 -7 0
21 -2 9 18 0
21 18 -7 -3 0
21 18 -7 -5 0
21 18 -7 9 0
7 3 -21 2 0
7 5 -21 3 0
7 -9 -21 3 0
21 -2 9 -13 0
21 -2 -13 -3 0
21 -2 -13 -5 0
21 -2 -13 -7 0
21 -13 -5 -3 0
21 18 -5 -3 0
21 18 9 -3 0
21 9 -3 -13 0
21 -13 -3 -7 0
21 18 9 -5 0
5 -9 -21 2 0
21 -13 -7 -5 0
21 9 -13 -5 0
21 9 -13 -7 0
3 5 -21 2 0
7 2 -21 5 0
5 -9 -21 3 0
3 -9 -21 2 0
7 -9 -21 5 0
7 2 -21 -9 0
-2 5 -3 -7 9 0
7 5 -3 -9 -2 0
3 -9 -7 -5 2 0
7 2 -3 -9 -5 0
-2 -9 -3 -5 -7 0
7 2 9 3 -5 0
7 -2 -3 -5 9 0
7 2 9 5 -3 0
5 -9 -7 2 -3 0
7 3 -5 -9 -2 0
5 -9 3 -2 -7 0
-2 3 -5 -7 9 0
3 5 9 2 -7 0
2 -3 -5 -7 9 0
7 5 9 3 -2 0
3 -9 2 7 5 0
13 2 5 3 -18 0
7 5 3 -18 13 0
5 -9 3 -18 13 0
7 2 5 -18 13 0
7 2 -9 -18 13 0
-18 2 -9 13 5 0
7 2 3 -18 13 0
3 -9 2 -18 13 0
7 3 -9 -18 13 0
21 9 -3 -2 -7 0
21 -7 -3 9 -5 0
7 5 -9 -18 13 0
21 -3 9 -5 -2 0
21 -7 9 -5 -2 0
-13 -3 -5 -7 18 -2 0
-13 -3 -7 9 18 -2 0
-13 -5 -7 9 18 -2 0
-5 -3 -7 9 18 -13 0
